n_res = 4;
rc = [ 25, 13, 26, 25 ];
n_tasks = 30;
d = [ 6, 1, 4, 6, 6, 4, 7, 2, 4, 9, 10, 10, 5, 1, 5, 2, 8, 9, 1, 10, 2, 8, 3, 3, 10, 4, 4, 4, 2, 2 ];
rr = [| 25, 25, 25, 25, 25, 25, 25, 25, 25, 25, 25, 25, 25, 25, 25, 25, 25, 25, 25, 25, 25, 25, 25, 25, 25, 25, 25, 25, 25, 25
      | 13, 13, 13, 13, 13, 13, 13, 13, 13, 13, 13, 13, 13, 13, 13, 13, 13, 13, 13, 13, 13, 13, 13, 13, 13, 13, 13, 13, 13, 13
      | 26, 26, 26, 26, 26, 26, 26, 26, 26, 26, 26, 26, 26, 26, 26, 26, 26, 26, 26, 26, 26, 26, 26, 26, 26, 26, 26, 26, 26, 26
      | 25, 25, 25, 25, 25, 25, 25, 25, 25, 25, 25, 25, 25, 25, 25, 25, 25, 25, 25, 25, 25, 25, 25, 25, 25, 25, 25, 25, 25, 25|];
suc = [ { 7, 9, 15 },
       { 4, 5, 8 },
       { 12, 25, 29 },
       { 20, 22, 25 },
       { 6, 22 },
       { 10, 11, 13 },
       { 16, 19 },
       { 14, 18 },
       { 17, 22 },
       { 29, 30 },
       { 12, 23 },
       { 19, 21 },
       { 15 },
       { 23, 25 },
       { 20 },
       { 20 },
       { 18, 19, 21 },
       { 30 },
       { 27, 28 },
       { 21, 23, 24 },
       { 27, 28 },
       { 26 },
       { 26 },
       { 26 },
       { 28 },
       { 27, 29 },
       { 30 },
       {  },
       {  },
       {  } ];
